Route #1: 115 114 106 107 108 109 120
Route #2: 78 133 68 70 69 110 123 124 125 126 112 111 122 121 127 128 129 113 81
Route #3: 66 71 33 80 67 79 63 64 77 134 76 74 73
Route #4: 22 24 23 30 31 55 53 51 52 50 62 49 48 34 32 47 72
Route #5: 60 59 58 57 105 97 96 38 39 95 37 98 99 35 36 100 101 102 104 56 103 54 61 1 75
Route #6: 91 21 25 26 27 28 29 94 93 45 44 43 40 3 41 42 2 4 5 6 7 8 9 10 11 12 14 88 15 13 16 92 90 89 87 86 85 84 83 82 20
Route #7: 19 65 130 119 117 131 116 132 18 17 118 46
Cost 1164
Time 0.254447
